88 87 86 85 92 91 555 556 557 552 553 554 98 99 100 101 551 550 559 558 560 561 562 563 565 566 564 549 548 478 477 479 480 476 475 482 481 483 485 484 536 537 539 538 540 188 187 178 177 176 175 174 173 172 170 171 169 180 181 179 182 183 185 184 197 198 199 200 201 166 167 164 163 168 162 160 161 113 112 114 116 115 111 110 109 108 107 542 541 543 544 545 546 547 102 103 104 105 106 117 124 125 126 127 128 129 130 131 132 133 134 135 136 137 138 139 140 141 151 150 149 152 148 147 142 143 144 146 145 158 157 153 156 159 155 154 165 203 204 202 208 207 206 205 196 195 194 209 210 211 212 213 214 215 216 217 223 224 222 221 220 218 219 193 192 191 190 226 225 189 227 186 228 229 230 231 533 532 531 489 488 534 535 487 486 490 491 492 493 525 524 473 474 472 471 495 494 518 519 520 517 522 521 523 526 527 528 529 530 233 232 234 235 236 237 509 510 511 512 513 514 515 516 506 307 305 306 304 303 301 302 508 507 240 239 238 246 247 245 244 243 242 241 248 249 250 251 252 254 253 255 256 257 300 258 259 260 261 262 263 264 266 265 299 298 297 321 320 319 318 317 316 313 312 311 310 309 308 505 504 503 502 451 501 498 500 499 452 453 440 441 450 449 448 447 446 442 439 443 444 445 431 382 386 385 387 388 389 390 381 380 379 378 377 314 315 376 375 374 373 322 323 324 325 326 327 328 329 366 330 331 332 295 296 294 293 270 268 267 271 272 269 291 292 273 274 275 290 289 288 276 277 278 279 282 281 280 287 286 285 284 283 334 335 333 336 337 338 339 340 341 344 343 342 365 367 368 369 370 372 371 396 395 394 393 392 391 397 398 399 400 404 405 406 407 408 409 384 383 410 418 411 412 356 402 403 401 360 359 358 361 363 364 345 346 362 347 348 350 349 357 355 354 353 352 351 415 416 414 413 417 419 420 421 422 423 424 425 426 427 428 429 430 432 433 434 435 436 437 438 454 455 456 457 458 459 460 461 462 463 464 465 497 496 470 469 468 467 466 571 572 573 0 1 2 3 4 5 6 7 8 9 10 11 14 15 16 17 18 19 20 568 569 570 567 27 26 28 25 24 21 13 12 23 22 31 29 30 32 33 34 35 36 37 38 40 41 39 42 43 44 45 46 47 48 49 50 84 51 52 54 53 55 56 83 82 57 58 59 60 61 63 62 79 81 80 78 77 76 64 75 74 73 72 65 66 67 68 69 70 71 123 122 121 120 119 118 95 96 97 94 93 90 89